188
206
207
311
399
351
192
153
61
445
114
17
267
240
141
381
281
79
89
174
106
86
395
52
427
226
75
219
265
364
68
172
74
58
16
383
231
433
32
415
387
357
127
19
70
442
46
471
240
461
207
270
182
58
230
97
157
331
256
44
386
263
466
44
232
441
450
456
296
45
219
216
111
81
474
308
367
111
12
70
28
491
46
369
81
348
320
221
58
341
139
207
105
273
286
81
459
174
335
269
320
183
262
202
38
394
175
491
450
104
295
363
497
475
320
222
432
480
209
421
106
136
356
172
461
235
203
399
199
55
385
311
27
471
240
254
352
48
402
156
70
173
187
201
378
466
43
127
358
142
245
360
424
339
192
455
223
277
429
319
8
87
34
389
175
357
73
86
116
39
320
248
12
358
125
373
88
456
342
168
480
309
153
139
285
284
386
125
423
155
